certificates/rado_a13_c152_N32.cnf
c Rad2 upper bound instance: x1 + 13*x2 - x3 = 152, interval [1,32]
p cnf 32 156
1 5 12 0
-1 -5 -12 0
1 13 18 0
-1 -13 -18 0
1 14 31 0
-1 -14 -31 0
2 6 12 0
-2 -6 -12 0
2 13 19 0
-2 -13 -19 0
2 14 32 0
-2 -14 -32 0
3 7 12 0
-3 -7 -12 0
3 13 20 0
-3 -13 -20 0
4 8 12 0
-4 -8 -12 0
4 13 21 0
-4 -13 -21 0
5 9 12 0
-5 -9 -12 0
5 13 22 0
-5 -13 -22 0
6 10 12 0
-6 -10 -12 0
6 13 23 0
-6 -13 -23 0
7 11 12 0
-7 -11 -12 0
7 13 24 0
-7 -13 -24 0
8 12 0
-8 -12 0
8 13 25 0
-8 -13 -25 0
9 12 13 0
-9 -12 -13 0
9 13 26 0
-9 -13 -26 0
1 10 11 0
-1 -10 -11 0
10 12 14 0
-10 -12 -14 0
10 13 27 0
-10 -13 -27 0
2 11 0
-2 -11 0
11 12 15 0
-11 -12 -15 0
11 13 28 0
-11 -13 -28 0
3 11 12 0
-3 -11 -12 0
12 16 0
-12 -16 0
12 13 29 0
-12 -13 -29 0
4 11 13 0
-4 -11 -13 0
12 13 17 0
-12 -13 -17 0
13 30 0
-13 -30 0
5 11 14 0
-5 -11 -14 0
12 14 18 0
-12 -14 -18 0
13 14 31 0
-13 -14 -31 0
6 11 15 0
-6 -11 -15 0
12 15 19 0
-12 -15 -19 0
13 15 32 0
-13 -15 -32 0
7 11 16 0
-7 -11 -16 0
12 16 20 0
-12 -16 -20 0
8 11 17 0
-8 -11 -17 0
12 17 21 0
-12 -17 -21 0
9 11 18 0
-9 -11 -18 0
12 18 22 0
-12 -18 -22 0
10 11 19 0
-10 -11 -19 0
12 19 23 0
-12 -19 -23 0
11 20 0
-11 -20 0
12 20 24 0
-12 -20 -24 0
11 12 21 0
-11 -12 -21 0
12 21 25 0
-12 -21 -25 0
11 13 22 0
-11 -13 -22 0
12 22 26 0
-12 -22 -26 0
1 10 23 0
-1 -10 -23 0
11 14 23 0
-11 -14 -23 0
12 23 27 0
-12 -23 -27 0
2 10 24 0
-2 -10 -24 0
11 15 24 0
-11 -15 -24 0
12 24 28 0
-12 -24 -28 0
3 10 25 0
-3 -10 -25 0
11 16 25 0
-11 -16 -25 0
12 25 29 0
-12 -25 -29 0
4 10 26 0
-4 -10 -26 0
11 17 26 0
-11 -17 -26 0
12 26 30 0
-12 -26 -30 0
5 10 27 0
-5 -10 -27 0
11 18 27 0
-11 -18 -27 0
12 27 31 0
-12 -27 -31 0
6 10 28 0
-6 -10 -28 0
11 19 28 0
-11 -19 -28 0
12 28 32 0
-12 -28 -32 0
7 10 29 0
-7 -10 -29 0
11 20 29 0
-11 -20 -29 0
8 10 30 0
-8 -10 -30 0
11 21 30 0
-11 -21 -30 0
9 10 31 0
-9 -10 -31 0
11 22 31 0
-11 -22 -31 0
10 32 0
-10 -32 0
11 23 32 0
-11 -23 -32 0
