certificates/rado_a13_c152_N32.drat
13 -31 -32 0
-31 -32 0
d 13 -31 -32 0
30 -9 0
-32 0
10 0
-30 31 0
31 0
-9 0
-13 0
30 0
15 0
12 0
26 0
-8 0
-19 0
-11 0
-16 0
0
